
Gurobi 12.0.0 (mac64[arm]) logging started Sat Jun 28 00:27:10 2025

Set parameter LogFile to value "gurobi.log"
Set parameter OutputFlag to value 1

Gurobi 12.0.0 (mac64[arm]) logging started Sat Jun 28 00:27:10 2025

Set parameter LogFile to value "gurobi.log"
Set parameter OutputFlag to value 1
